20
99.0
0 19 25.95 0.33
1 18 21.28 0.3
2 17 18.47 0.26
3 16 14.06 0.35
4 15 9.6 0.29
5 14 26.21 0.23
6 13 21.85 0.3
7 12 13.83 0.31
8 11 10.09 0.29
9 10 40.6 0.26
10 9 32.67 0.32
11 8 35.0 0.27
12 7 22.14 0.34
13 6 11.67 0.12
14 5 85.0 0.29
15 4 83.0 0.35
16 3 88.33 0.31
17 2 86.0 0.22
18 1 81.0 0.25
